p wcnf 141 70 71 
1 114 -86 0 
1 16 -36 0 
1 77 -137 0 
1 -22 -111 0 
1 102 103 0 
1 -87 65 0 
1 -124 51 0 
1 -46 33 0 
1 87 -99 0 
1 42 18 0 
1 -21 -6 0 
1 127 -120 0 
1 132 -63 0 
1 105 76 0 
1 -51 101 0 
1 48 -79 0 
1 8 -52 0 
1 -62 14 0 
1 -141 59 0 
1 130 38 0 
1 43 22 0 
1 -69 -97 0 
1 117 121 0 
1 -54 -102 0 
1 38 -72 0 
1 -79 -30 0 
1 126 -67 0 
1 -113 -107 0 
1 -107 -15 0 
1 -65 -37 0 
1 84 -58 0 
1 -78 126 0 
1 3 73 0 
1 -58 -21 0 
1 -84 -94 0 
1 78 130 0 
1 -118 39 0 
1 15 108 0 
1 34 -68 0 
1 127 -112 0 
1 -43 40 0 
1 133 61 0 
1 106 -77 0 
1 -8 39 0 
1 2 59 0 
1 -116 -81 0 
1 -97 -94 0 
1 100 -114 0 
1 -92 -83 0 
1 98 -8 0 
1 -20 -1 0 
1 -105 -130 0 
1 94 60 0 
1 127 11 0 
1 88 51 0 
1 29 -68 0 
1 43 -29 0 
1 18 113 0 
1 -87 -103 0 
1 65 -100 0 
1 -109 -88 0 
1 118 -66 0 
1 103 -14 0 
1 -45 -67 0 
1 -38 12 0 
1 111 -128 0 
1 -54 139 0 
1 64 4 0 
1 -128 111 0 
1 -137 -81 0 
